Set parameter LicenseID to value 2609176
Set parameter TimeLimit to value 1800
Gurobi Optimizer version 11.0.3 build v11.0.3rc0 (linux64 - "Debian GNU/Linux 12 (bookworm)")

CPU model: AMD EPYC 7B12, instruction set [SSE2|AVX|AVX2]
Thread count: 4 physical cores, 8 logical processors, using up to 8 threads

Optimize a model with 453188 rows, 455625 columns and 295289588 nonzeros
Model fingerprint: 0xfe8b9fc3
Variable types: 0 continuous, 455625 integer (455625 binary)
Coefficient statistics:
  Matrix range     [1e+00, 1e+00]
  Objective range  [0e+00, 0e+00]
  Bounds range     [1e+00, 1e+00]
  RHS range        [1e+00, 1e+00]
Presolve removed 0 rows and 0 columns (presolve time = 12s) ...
Presolve removed 0 rows and 0 columns (presolve time = 16s) ...
Presolve removed 338 rows and 338 columns (presolve time = 23s) ...
Presolve removed 338 rows and 338 columns (presolve time = 28s) ...
Presolve removed 338 rows and 338 columns (presolve time = 34s) ...
Presolve removed 338 rows and 338 columns (presolve time = 35s) ...
Presolve removed 338 rows and 338 columns (presolve time = 45s) ...
Presolve removed 338 rows and 338 columns (presolve time = 50s) ...
Presolve removed 338 rows and 338 columns (presolve time = 55s) ...
Presolve removed 338 rows and 338 columns (presolve time = 60s) ...
Presolve removed 338 rows and 338 columns (presolve time = 65s) ...
Presolve removed 338 rows and 338 columns (presolve time = 70s) ...
Presolve removed 338 rows and 338 columns (presolve time = 75s) ...
Presolve removed 338 rows and 338 columns (presolve time = 80s) ...
Presolve removed 338 rows and 338 columns (presolve time = 85s) ...
Presolve removed 338 rows and 338 columns (presolve time = 90s) ...
Presolve removed 338 rows and 338 columns (presolve time = 95s) ...
Presolve removed 338 rows and 338 columns (presolve time = 100s) ...
Presolve removed 338 rows and 338 columns (presolve time = 105s) ...
Presolve removed 338 rows and 338 columns (presolve time = 110s) ...
Presolve removed 338 rows and 338 columns (presolve time = 115s) ...
Presolve removed 338 rows and 338 columns (presolve time = 120s) ...
Presolve removed 338 rows and 338 columns (presolve time = 126s) ...
Presolve removed 338 rows and 338 columns (presolve time = 133s) ...
Presolve removed 338 rows and 338 columns (presolve time = 137s) ...
Presolve removed 338 rows and 338 columns (presolve time = 140s) ...
Presolve removed 338 rows and 338 columns (presolve time = 145s) ...
Presolve removed 338 rows and 338 columns (presolve time = 150s) ...
Presolve removed 338 rows and 338 columns (presolve time = 155s) ...
Presolve removed 338 rows and 338 columns (presolve time = 160s) ...
Presolve removed 338 rows and 338 columns (presolve time = 165s) ...
Presolve removed 338 rows and 338 columns (presolve time = 170s) ...
Presolve removed 338 rows and 338 columns (presolve time = 175s) ...
Presolve removed 338 rows and 338 columns (presolve time = 180s) ...
Presolve removed 338 rows and 338 columns (presolve time = 185s) ...
Presolve removed 338 rows and 338 columns (presolve time = 190s) ...
Presolve removed 338 rows and 338 columns (presolve time = 195s) ...
Presolve removed 338 rows and 338 columns (presolve time = 200s) ...
Presolve removed 390 rows and 338 columns (presolve time = 205s) ...
Presolve removed 390 rows and 338 columns (presolve time = 212s) ...
Presolve removed 390 rows and 338 columns (presolve time = 218s) ...
Presolve removed 390 rows and 338 columns (presolve time = 227s) ...
Presolve removed 390 rows and 338 columns (presolve time = 231s) ...
Presolve removed 390 rows and 338 columns (presolve time = 235s) ...
Presolve removed 390 rows and 338 columns (presolve time = 240s) ...
Presolve removed 390 rows and 338 columns (presolve time = 245s) ...
Presolve removed 390 rows and 338 columns (presolve time = 250s) ...
Presolve removed 390 rows and 338 columns (presolve time = 255s) ...
Presolve removed 390 rows and 338 columns (presolve time = 260s) ...
Presolve removed 390 rows and 338 columns (presolve time = 265s) ...
Presolve removed 390 rows and 338 columns (presolve time = 270s) ...
Presolve removed 390 rows and 338 columns (presolve time = 275s) ...
Presolve removed 390 rows and 338 columns (presolve time = 280s) ...
Presolve removed 390 rows and 338 columns (presolve time = 285s) ...
Presolve removed 390 rows and 338 columns (presolve time = 290s) ...
Presolve removed 390 rows and 338 columns (presolve time = 295s) ...
Presolve removed 390 rows and 338 columns (presolve time = 300s) ...
Presolve removed 390 rows and 338 columns (presolve time = 309s) ...
Presolve removed 390 rows and 338 columns (presolve time = 311s) ...
Presolve removed 390 rows and 338 columns (presolve time = 315s) ...
Presolve removed 390 rows and 338 columns (presolve time = 324s) ...
Presolve removed 390 rows and 338 columns (presolve time = 326s) ...
